1000 500
926 956
303 563
468 830
458 905
356 984
138 309
603 708
463 968
125 290
96 629
811 990
635 868
377 564
510 983
954 969
682 824
328 347
343 481
296 945
455 983
835 859
263 326
459 922
576 742
574 654
932 977
428 904
257 340
46 922
305 617
134 605
254 530
307 689
863 999
651 894
831 886
241 521
17 103
781 853
91 171
618 969
10 25
923 984
754 819
324 770
657 916
807 918
883 959
644 970
512 712
744 973
822 828
204 571
36 827
100 402
236 733
173 716
250 961
629 939
786 870
52 337
384 460
683 775
112 438
142 341
882 886
919 953
133 259
967 980
543 948
954 990
31 608
561 811
677 699
980 996
321 724
500 843
820 876
961 973
346 979
503 846
986 997
502 636
169 564
756 910
715 874
15 658
780 902
931 973
923 981
432 826
615 887
910 955
802 940
957 997
604 996
795 908
468 724
377 718
320 628
338 413
940 956
683 924
733 904
319 428
142 736
358 369
449 764
289 750
466 621
722 898
162 447
203 768
852 869
258 259
418 905
907 990
451 451
41 999
761 894
624 765
768 903
2 251
708 971
312 387
267 725
657 854
699 856
979 991
685 951
478 909
448 519
445 966
418 813
840 873
265 443
440 841
199 976
797 902
579 698
255 507
42 483
459 907
885 966
291 638
396 946
367 759
328 666
357 378
909 937
648 977
881 901
967 974
50 677
590 873
36 919
5 266
812 910
419 617
610 820
681 952
554 606
981 984
119 660
556 699
754 820
83 582
209 930
765 922
154 513
525 845
259 890
736 898
612 925
703 775
887 998
614 828
904 908
272 982
944 948
693 953
63 643
970 988
224 842
816 983
675 799
14 950
573 937
709 743
699 734
14 742
644 780
102 863
92 551
67 817
788 952
519 888
511 786
826 870
820 872
930 935
580 997
643 837
222 325
126 657
984 989
297 616
812 825
860 880
413 672
476 815
56 790
44 742
117 727
645 907
387 731
279 410
914 914
188 712
600 866
512 691
828 838
284 617
33 805
575 944
695 756
983 999
895 921
38 445
929 966
967 982
703 804
44 798
481 926
140 160
876 959
402 738
324 665
457 627
555 685
866 958
270 357
713 759
581 767
844 989
944 972
982 996
321 422
935 998
711 869
597 666
90 317
604 719
637 748
514 761
788 988
72 540
654 782
693 934
985 990
690 856
191 700
265 350
161 869
210 721
567 836
991 993
653 998
352 569
855 960
639 981
894 982
145 517
705 878
518 920
350 926
226 679
941 974
855 957
875 930
753 890
333 545
962 992
732 804
50 525
895 947
354 841
506 872
327 664
841 889
551 815
691 841
796 811
678 789
885 898
740 861
338 972
372 484
97 108
66 719
92 217
951 996
152 359
52 207
597 786
670 980
595 904
707 816
441 721
44 853
826 842
19 352
520 624
657 870
554 896
910 932
95 165
201 401
492 661
421 731
154 358
582 686
261 914
98 531
958 977
404 577
168 823
357 447
538 883
843 956
86 822
913 971
619 687
183 842
163 165
490 758
136 652
760 881
331 591
830 963
934 970
472 952
116 181
540 949
621 811
335 697
827 976
3 697
659 888
107 281
876 983
21 669
852 862
719 935
690 850
110 447
879 960
141 494
159 325
68 138
344 691
959 970
341 888
462 857
662 985
985 987
886 916
493 988
225 707
854 860
612 706
40 387
296 700
729 748
644 731
845 982
842 918
460 827
513 623
722 977
461 714
323 999
829 866
412 508
98 655
481 874
808 871
44 99
462 678
269 566
763 924
479 982
143 223
355 611
813 818
215 897
622 990
244 973
968 998
625 715
914 950
478 629
76 483
491 822
755 756
989 994
410 506
163 592
197 929
174 432
887 908
182 359
639 721
543 725
686 762
724 902
964 987
487 993
752 839
797 920
48 431
877 972
105 628
894 998
92 157
142 270
137 533
452 829
262 392
524 633
142 317
722 929
724 740
902 962
259 629
136 514
728 870
983 992
372 557
55 827
769 986
216 751
672 944
520 723
376 562
945 999
943 992
494 795
336 779
839 917
351 996
229 733
18 990
296 540
33 901
171 614
927 931
255 979
198 993
305 794
782 947
135 850
259 717
420 913
650 696
849 936
972 988
878 934
552 713
651 897
680 774
9 98
622 874
147 831
899 921
553 797
440 734
67 107
811 926
61 554
658 729
625 723
834 863
926 958
52 355
872 873
359 526
443 603
582 980
528 779
365 696
675 782
693 900
331 365
746 874
110 438
928 964
749 764
205 559
226 448
