3000
16156698 16656698
12215005 12715005
8128359 8628359
15125589 15625589
7562961 8062961
7493624 7993624
9312524 9812524
11522532 12022532
13838256 14338256
6304007 6804007
15735105 16235105
4552471 5052471
15992901 16492901
9739159 10239159
6229334 6729334
11546927 12046927
5393873 5893873
8568836 9068836
15592442 16092442
5786587 6286587
9818909 10318909
6028379 6528379
5528805 6028805
10971185 11471185
8354664 8854664
12340610 12840610
14079882 14579882
16262218 16762218
11319695 11819695
13936619 14436619
8311358 8811358
16121096 16621096
4713175 5213175
15563526 16063526
10185039 10685039
9386672 9886672
9491321 9991321
5145518 5645518
12315416 12815416
8353061 8853061
11831793 12331793
6082961 6582961
8159132 8659132
12440141 12940141
11728980 12228980
12808136 13308136
7330230 7830230
8406335 8906335
6562576 7062576
4654519 5154519
15315740 15815740
10968452 11468452
15638715 16138715
13000093 13500093
13756678 14256678
9674491 10174491
10397263 10897263
12062408 12562408
12992059 13492059
9350868 9850868
6909930 7409930
7435813 7935813
5377488 5877488
6544557 7044557
14018470 14518470
13988586 14488586
11875677 12375677
5375677 5875677
9068830 9568830
15613528 16113528
8613324 9113324
7014829 7514829
10248589 10748589
10467979 10967979
11202462 11702462
6667073 7167073
7663490 8163490
15936552 16436552
7941003 8441003
15840735 16340735
15923053 16423053
9171191 9671191
13825709 14325709
12854116 13354116
8338926 8838926
10864632 11364632
6632764 7132764
4278955 4778955
11616135 12116135
5797209 6297209
4592962 5092962
11450177 11950177
5384440 5884440
13344020 13844020
8031363 8531363
6714659 7214659
4513617 5013617
15712414 16212414
15207989 15707989
14483851 14983851
8205984 8705984
8468340 8968340
10180794 10680794
5730326 6230326
16168298 16668298
14051110 14551110
7417876 7917876
11274485 11774485
15766507 16266507
4346265 4846265
5642201 6142201
10309681 10809681
14408167 14908167
4903163 5403163
10939432 11439432
14599469 15099469
8997685 9497685
9390437 9890437
4280394 4780394
12441774 12941774
6338655 6838655
7673799 8173799
15445231 15945231
4292710 4792710
10439146 10939146
5621382 6121382
5987036 6487036
4353839 4853839
12622980 13122980
4933455 5433455
13144481 13644481
6831122 7331122
12522794 13022794
15823262 16323262
5480062 5980062
6157095 6657095
12831191 13331191
8986428 9486428
12964808 13464808
13092764 13592764
7264603 7764603
15020215 15520215
14782918 15282918
14557332 15057332
8744652 9244652
6705653 7205653
6425844 6925844
16026330 16526330
5773369 6273369
7299086 7799086
5904014 6404014
13903162 14403162
14889748 15389748
9103318 9603318
7596083 8096083
7249916 7749916
5744864 6244864
9253164 9753164
10597000 11097000
9137336 9637336
7315537 7815537
15598158 16098158
15099972 15599972
13165121 13665121
13593412 14093412
6245069 6745069
12217701 12717701
14673507 15173507
9537317 10037317
8736995 9236995
10343220 10843220
14591253 15091253
11088912 11588912
10654904 11154904
5268402 5768402
7646801 8146801
13221207 13721207
9674145 10174145
7975006 8475006
12017217 12517217
6246267 6746267
7624525 8124525
9298034 9798034
15039129 15539129
10076234 10576234
8844748 9344748
4920498 5420498
6061967 6561967
16034020 16534020
13317090 13817090
11219989 11719989
9093973 9593973
7024479 7524479
7297097 7797097
15144302 15644302
7403545 7903545
4228200 4728200
13007855 13507855
7875490 8375490
9082789 9582789
14140735 14640735
6431215 6931215
15732396 16232396
14498663 14998663
14996089 15496089
4681224 5181224
14794887 15294887
10680167 11180167
15210211 15710211
11416619 11916619
14136193 14636193
6226488 6726488
12834214 13334214
13410781 13910781
10367638 10867638
12812866 13312866
5020303 5520303
13595031 14095031
15320436 15820436
12822438 13322438
12915045 13415045
12627391 13127391
12623261 13123261
15680133 16180133
4732726 5232726
16245879 16745879
4538550 5038550
7176664 7676664
13877231 14377231
7756130 8256130
14223546 14723546
9687635 10187635
6718817 7218817
13946250 14446250
7099100 7599100
9776028 10276028
12227740 12727740
4642053 5142053
6050114 6550114
9138455 9638455
15102028 15602028
8189603 8689603
15876787 16376787
7112660 7612660
7603938 8103938
10260837 10760837
10201523 10701523
13642378 14142378
12880567 13380567
8049526 8549526
8913978 9413978
15737161 16237161
7186449 7686449
15057329 15557329
6567545 7067545
15180025 15680025
14856545 15356545
12379267 12879267
11925413 12425413
6657312 7157312
15645743 16145743
12441029 12941029
6245526 6745526
11507334 12007334
5018950 5518950
4723803 5223803
15088681 15588681
9568660 10068660
9468333 9968333
6013094 6513094
5911874 6411874
8319119 8819119
16151956 16651956
5577961 6077961
12473139 12973139
15594972 16094972
7880590 8380590
9143636 9643636
13603674 14103674
12346617 12846617
5637445 6137445
6060544 6560544
9640423 10140423
8737871 9237871
7180739 7680739
9228325 9728325
8108451 8608451
10076327 10576327
9577984 10077984
14634898 15134898
9512917 10012917
6721320 7221320
10174263 10674263
13030852 13530852
11783265 12283265
10073924 10573924
11068768 11568768
14786804 15286804
4523672 5023672
8738405 9238405
8797689 9297689
7932078 8432078
11297349 11797349
15012492 15512492
10606833 11106833
8042440 8542440
4692605 5192605
5911483 6411483
11942805 12442805
7509705 8009705
11346108 11846108
7783853 8283853
13168487 13668487
7494409 7994409
13750937 14250937
6824779 7324779
5194713 5694713
13817518 14317518
4421170 4921170
15695308 16195308
8264985 8764985
12183242 12683242
15212450 15712450
11227937 11727937
7276954 7776954
6268589 6768589
14594634 15094634
10014192 10514192
15238481 15738481
6681385 7181385
10925674 11425674
11347520 11847520
4685750 5185750
7655588 8155588
8834305 9334305
16172115 16672115
10295258 10795258
14346714 14846714
9452008 9952008
6798694 7298694
14610432 15110432
7080653 7580653
14410904 14910904
12140431 12640431
11414023 11914023
6422872 6922872
12832125 13332125
12223875 12723875
15564652 16064652
7498341 7998341
10568002 11068002
10454184 10954184
8018450 8518450
9604190 10104190
14260915 14760915
16083643 16583643
12327746 12827746
14861995 15361995
10706267 11206267
12395176 12895176
4795409 5295409
9360834 9860834
10527301 11027301
16129027 16629027
6302133 6802133
12661099 13161099
15989347 16489347
5274445 5774445
6670342 7170342
8808399 9308399
14837648 15337648
11984897 12484897
6443331 6943331
4887854 5387854
5207989 5707989
15636116 16136116
14107776 14607776
10742354 11242354
12381952 12881952
9900218 10400218
15601578 16101578
7800053 8300053
11630569 12130569
12924712 13424712
5916261 6416261
14503655 15003655
14079434 14579434
12643714 13143714
11244689 11744689
13426183 13926183
8329174 8829174
5861028 6361028
12976920 13476920
8293831 8793831
13089099 13589099
8801539 9301539
4457214 4957214
14511198 15011198
11361194 11861194
11488794 11988794
8320943 8820943
7865001 8365001
14027242 14527242
10761958 11261958
9706573 10206573
15925730 16425730
7066335 7566335
8315046 8815046
9847846 10347846
4671037 5171037
8408567 8908567
12225129 12725129
9827327 10327327
14433822 14933822
8959437 9459437
8990903 9490903
15711419 16211419
11928828 12428828
7577419 8077419
9630259 10130259
7704557 8204557
5981263 6481263
16230590 16730590
5034387 5534387
10513334 11013334
10956238 11456238
11323822 11823822
4849927 5349927
13232257 13732257
7168162 7668162
9794107 10294107
12427528 12927528
10221138 10721138
14606079 15106079
16114840 16614840
11377330 11877330
8864241 9364241
11808963 12308963
9823901 10323901
5717436 6217436
14823364 15323364
15863923 16363923
13800563 14300563
9282588 9782588
9994556 10494556
14752645 15252645
13291727 13791727
10637741 11137741
6100057 6600057
10152451 10652451
10041942 10541942
8098681 8598681
15713660 16213660
12431791 12931791
11308211 11808211
8163063 8663063
4921938 5421938
4513620 5013620
6959188 7459188
5165956 5665956
11213735 11713735
10444509 10944509
5760913 6260913
4429154 4929154
15538958 16038958
7898574 8398574
15079883 15579883
13252233 13752233
8479316 8979316
14732491 15232491
13562025 14062025
10624577 11124577
4657880 5157880
14170311 14670311
14167808 14667808
13288427 13788427
12764473 13264473
7709434 8209434
13968668 14468668
5202659 5702659
9569275 10069275
15560807 16060807
5945034 6445034
14205490 14705490
8667392 9167392
12649469 13149469
7863624 8363624
11203002 11703002
9214426 9714426
5418720 5918720
5614486 6114486
16018909 16518909
9730064 10230064
14826133 15326133
14612145 15112145
11640283 12140283
7612159 8112159
6139645 6639645
4303242 4803242
7307667 7807667
10050830 10550830
5554447 6054447
11559645 12059645
7550981 8050981
15980781 16480781
6378333 6878333
11989247 12489247
6592697 7092697
12981001 13481001
4748685 5248685
10764503 11264503
6371260 6871260
10900832 11400832
4638587 5138587
8680615 9180615
15987728 16487728
13046248 13546248
7916452 8416452
13378323 13878323
14668338 15168338
7398572 7898572
15785064 16285064
5634454 6134454
11800117 12300117
14154467 14654467
7366113 7866113
4962505 5462505
9741459 10241459
11362578 11862578
6821199 7321199
7170297 7670297
4574728 5074728
9069524 9569524
6724769 7224769
12583623 13083623
9052110 9552110
4459864 4959864
10332074 10832074
14226559 14726559
8872706 9372706
11310985 11810985
5722986 6222986
5335970 5835970
11772979 12272979
10740521 11240521
14388010 14888010
11288437 11788437
6280302 6780302
11103170 11603170
5893492 6393492
6283118 6783118
4340111 4840111
6340331 6840331
5310909 5810909
4456578 4956578
7968791 8468791
14777867 15277867
14628568 15128568
12747193 13247193
10384755 10884755
9967832 10467832
10279914 10779914
4452566 4952566
15606691 16106691
12131535 12631535
4933070 5433070
4311129 4811129
14365658 14865658
13835499 14335499
7715176 8215176
12104154 12604154
14363190 14863190
9485169 9985169
10410436 10910436
7264233 7764233
14909104 15409104
6582298 7082298
15502262 16002262
12756001 13256001
11399951 11899951
13464983 13964983
5714559 6214559
10878259 11378259
15682704 16182704
9025848 9525848
5587441 6087441
10723253 11223253
6654114 7154114
4911616 5411616
8999728 9499728
7634735 8134735
11116758 11616758
13641002 14141002
10007199 10507199
4860792 5360792
16149088 16649088
7896568 8396568
14550316 15050316
13664662 14164662
4261789 4761789
11044919 11544919
8541984 9041984
6624863 7124863
14487836 14987836
14338786 14838786
5638809 6138809
5340065 5840065
14276959 14776959
14512446 15012446
12318650 12818650
12313817 12813817
14756576 15256576
9752817 10252817
5559576 6059576
5776037 6276037
9054740 9554740
6508155 7008155
13552837 14052837
6361566 6861566
9365381 9865381
11355924 11855924
11095294 11595294
13264755 13764755
14078969 14578969
8673230 9173230
8057486 8557486
8465248 8965248
10543366 11043366
8167796 8667796
6646031 7146031
8925627 9425627
8385535 8885535
12451984 12951984
11523965 12023965
10664571 11164571
8989177 9489177
4238437 4738437
14073359 14573359
14272801 14772801
8074809 8574809
6328280 6828280
11299861 11799861
8359375 8859375
8576445 9076445
8226256 8726256
9825560 10325560
15419242 15919242
12302114 12802114
5347458 5847458
7768805 8268805
6415556 6915556
6606305 7106305
9600166 10100166
6033076 6533076
5831947 6331947
4988815 5488815
11795158 12295158
10591042 11091042
4429345 4929345
7203387 7703387
15737641 16237641
8350268 8850268
4492964 4992964
5021402 5521402
12183639 12683639
13839163 14339163
7138387 7638387
12151495 12651495
5030585 5530585
5189417 5689417
11160255 11660255
11500714 12000714
10069599 10569599
10615225 11115225
4380255 4880255
8962978 9462978
4568799 5068799
4565761 5065761
15734661 16234661
7972275 8472275
7885466 8385466
6334987 6834987
10396775 10896775
14547467 15047467
10298180 10798180
5792717 6292717
11501006 12001006
6689836 7189836
12903907 13403907
4672449 5172449
15059079 15559079
9858405 10358405
9579847 10079847
11330978 11830978
4751421 5251421
15368517 15868517
5797115 6297115
14589489 15089489
4316532 4816532
13211330 13711330
13186950 13686950
14231974 14731974
12784739 13284739
5159304 5659304
13759779 14259779
15716980 16216980
8205498 8705498
14321656 14821656
15774201 16274201
14717392 15217392
10941441 11441441
5334850 5834850
12301123 12801123
10844543 11344543
7885357 8385357
12723842 13223842
7041310 7541310
10084328 10584328
5986867 6486867
12036965 12536965
12313446 12813446
7051115 7551115
6004925 6504925
6036725 6536725
5849584 6349584
10548954 11048954
8391323 8891323
9679792 10179792
15281276 15781276
15191605 15691605
14463577 14963577
12097750 12597750
9805173 10305173
10621797 11121797
5310044 5810044
4901293 5401293
15025827 15525827
13863045 14363045
8020363 8520363
12838112 13338112
10271442 10771442
11321204 11821204
12975978 13475978
8159126 8659126
7305943 7805943
10179826 10679826
16279330 16779330
5212363 5712363
10689560 11189560
7844763 8344763
9667275 10167275
13209915 13709915
7652696 8152696
11416263 11916263
9325465 9825465
6649224 7149224
10514137 11014137
8975050 9475050
15064688 15564688
9129753 9629753
6876432 7376432
7116299 7616299
12091268 12591268
13420610 13920610
9334762 9834762
15905695 16405695
6936904 7436904
5664387 6164387
13289923 13789923
14317590 14817590
4818013 5318013
6927779 7427779
8099322 8599322
12693965 13193965
9697982 10197982
15701124 16201124
9763936 10263936
9593506 10093506
7775891 8275891
6350229 6850229
13928025 14428025
6954939 7454939
14080828 14580828
9977251 10477251
6968668 7468668
4526754 5026754
4385098 4885098
8904766 9404766
12600665 13100665
9209231 9709231
15644560 16144560
14072025 14572025
11965564 12465564
10434022 10934022
13056068 13556068
15376030 15876030
5378384 5878384
7113604 7613604
14374336 14874336
6051509 6551509
6202471 6702471
16248053 16748053
15462033 15962033
13241894 13741894
8935184 9435184
11938694 12438694
9923658 10423658
13172531 13672531
11299352 11799352
15267940 15767940
9364445 9864445
6038537 6538537
15800092 16300092
6817855 7317855
15514272 16014272
7557497 8057497
16089945 16589945
11645638 12145638
5973685 6473685
7273223 7773223
13851646 14351646
6843229 7343229
5137497 5637497
8811885 9311885
5224558 5724558
6090324 6590324
16279482 16779482
8465614 8965614
5990120 6490120
5096340 5596340
15870001 16370001
12985399 13485399
8644439 9144439
12981885 13481885
8086737 8586737
7007247 7507247
12623568 13123568
6177915 6677915
16001912 16501912
15671631 16171631
13064581 13564581
6725088 7225088
9170457 9670457
6645260 7145260
9473560 9973560
14352613 14852613
4638064 5138064
4429183 4929183
9114041 9614041
6741030 7241030
7267592 7767592
7229165 7729165
4428611 4928611
9181293 9681293
13360127 13860127
5652370 6152370
7019561 7519561
14691626 15191626
15580703 16080703
8365349 8865349
10597206 11097206
10805089 11305089
15227340 15727340
7704793 8204793
7959457 8459457
11667199 12167199
7805700 8305700
15489443 15989443
12043310 12543310
7046567 7546567
9847078 10347078
14399234 14899234
13834360 14334360
15560981 16060981
12344798 12844798
4652455 5152455
16123805 16623805
12182729 12682729
14814562 15314562
10709534 11209534
15352933 15852933
9360716 9860716
7478475 7978475
6181074 6681074
7385509 7885509
10343453 10843453
5944850 6444850
8953841 9453841
12736685 13236685
13801836 14301836
11301224 11801224
9638548 10138548
10360194 10860194
4504762 5004762
4445204 4945204
7925015 8425015
5033900 5533900
13485551 13985551
7137684 7637684
10716627 11216627
12971734 13471734
15276515 15776515
12991942 13491942
14230147 14730147
14908132 15408132
16023179 16523179
15972894 16472894
12058723 12558723
11273184 11773184
4584171 5084171
9156553 9656553
9038691 9538691
6261981 6761981
7601939 8101939
6316449 6816449
12545579 13045579
13706401 14206401
9113333 9613333
10939012 11439012
6737897 7237897
14817856 15317856
7534868 8034868
13075137 13575137
14923369 15423369
14218035 14718035
14420061 14920061
5700244 6200244
15189811 15689811
8868160 9368160
14082109 14582109
14457803 14957803
5260020 5760020
12640981 13140981
7753761 8253761
12510083 13010083
12794741 13294741
6061415 6561415
4331103 4831103
15915408 16415408
7119017 7619017
6068724 6568724
16092276 16592276
7177581 7677581
5357186 5857186
5602971 6102971
7125938 7625938
9275900 9775900
13058626 13558626
4325626 4825626
12523365 13023365
7734672 8234672
13433009 13933009
9566376 10066376
11173846 11673846
15133534 15633534
9888136 10388136
12045488 12545488
12864628 13364628
13524638 14024638
9842374 10342374
9897538 10397538
10751684 11251684
9303572 9803572
8994714 9494714
14023269 14523269
7976317 8476317
6628367 7128367
10719596 11219596
14796870 15296870
10963762 11463762
16050231 16550231
4657661 5157661
9624914 10124914
8014238 8514238
5555908 6055908
9775713 10275713
16021273 16521273
7834270 8334270
10473962 10973962
4922062 5422062
12544074 13044074
4303799 4803799
13531108 14031108
6921931 7421931
6453701 6953701
11167867 11667867
15254989 15754989
7704796 8204796
10013775 10513775
7905010 8405010
8018384 8518384
11898371 12398371
4323811 4823811
13718818 14218818
6395801 6895801
13486864 13986864
4404169 4904169
14568205 15068205
15043203 15543203
13538319 14038319
11870398 12370398
7723083 8223083
10977535 11477535
6281533 6781533
13117956 13617956
6723425 7223425
16079450 16579450
13038327 13538327
15957313 16457313
14811291 15311291
9275450 9775450
11383176 11883176
12072518 12572518
8897973 9397973
8487628 8987628
11843629 12343629
13821945 14321945
11747574 12247574
10342091 10842091
16209445 16709445
7120640 7620640
6654927 7154927
4991567 5491567
14022955 14522955
12558640 13058640
13792819 14292819
6043264 6543264
7173802 7673802
8287572 8787572
8864377 9364377
9623396 10123396
5228748 5728748
11182285 11682285
9658603 10158603
9158319 9658319
13531952 14031952
4220389 4720389
8512206 9012206
8338292 8838292
13162324 13662324
13847911 14347911
12513193 13013193
13775384 14275384
12894057 13394057
14382911 14882911
15385906 15885906
6414974 6914974
7469658 7969658
15579620 16079620
15936732 16436732
8247271 8747271
15954499 16454499
16149917 16649917
5470821 5970821
7028825 7528825
5371939 5871939
15079315 15579315
11687757 12187757
6042001 6542001
8418214 8918214
9170902 9670902
14461678 14961678
8865539 9365539
7854253 8354253
9971757 10471757
6271622 6771622
15983402 16483402
15184664 15684664
6614287 7114287
15789268 16289268
5303646 5803646
7440599 7940599
8809378 9309378
5208198 5708198
16214216 16714216
11639299 12139299
15688023 16188023
13860585 14360585
13244597 13744597
4818891 5318891
7824378 8324378
9685077 10185077
15000553 15500553
11847453 12347453
10256103 10756103
11659296 12159296
9588045 10088045
14465124 14965124
12847093 13347093
10441358 10941358
16072132 16572132
12604050 13104050
15309678 15809678
14333666 14833666
10961719 11461719
7165784 7665784
7754555 8254555
15407294 15907294
14071451 14571451
16110110 16610110
12912403 13412403
7288603 7788603
8509983 9009983
15122345 15622345
12762913 13262913
7190194 7690194
13158611 13658611
16005835 16505835
8444831 8944831
5194847 5694847
9461521 9961521
4661446 5161446
11370482 11870482
14009304 14509304
10815767 11315767
14221767 14721767
6198768 6698768
6770554 7270554
10456974 10956974
9607515 10107515
15767252 16267252
8220392 8720392
13208412 13708412
14466599 14966599
12330142 12830142
7578522 8078522
11310628 11810628
13465882 13965882
13889925 14389925
4398192 4898192
15750547 16250547
10603294 11103294
9404984 9904984
8568585 9068585
13723087 14223087
13576565 14076565
15029192 15529192
5726769 6226769
8675535 9175535
13667075 14167075
15941012 16441012
5333375 5833375
4692581 5192581
4779442 5279442
12407551 12907551
7788176 8288176
10211949 10711949
7181988 7681988
15036069 15536069
6171166 6671166
8332919 8832919
7691214 8191214
10906086 11406086
9292775 9792775
4310357 4810357
7660034 8160034
11294128 11794128
12952094 13452094
6072801 6572801
7777408 8277408
7978799 8478799
10330363 10830363
14630683 15130683
13218551 13718551
5617403 6117403
12079960 12579960
4302205 4802205
14308253 14808253
5881522 6381522
10541350 11041350
7959931 8459931
7977033 8477033
6138006 6638006
15445868 15945868
15574873 16074873
15774761 16274761
4498927 4998927
12685239 13185239
14665518 15165518
5409188 5909188
15963622 16463622
5210916 5710916
4891564 5391564
5712326 6212326
6922695 7422695
4681371 5181371
10803647 11303647
14960336 15460336
11220771 11720771
7582490 8082490
14987928 15487928
8628619 9128619
4698446 5198446
7920860 8420860
6113589 6613589
8456550 8956550
15775476 16275476
4995249 5495249
11745989 12245989
13595250 14095250
6677963 7177963
14725867 15225867
13997654 14497654
14999099 15499099
8529145 9029145
5171554 5671554
10790168 11290168
15520823 16020823
9709672 10209672
9602334 10102334
14146326 14646326
7950093 8450093
10026006 10526006
4462595 4962595
4675110 5175110
14893821 15393821
4821732 5321732
7366868 7866868
13454577 13954577
12917822 13417822
12620880 13120880
6685344 7185344
14050941 14550941
8421454 8921454
13705945 14205945
7627388 8127388
4524008 5024008
8431655 8931655
9801175 10301175
9219562 9719562
9045468 9545468
12535099 13035099
15119829 15619829
10907291 11407291
12018551 12518551
13951482 14451482
15753542 16253542
5541539 6041539
15367813 15867813
10179136 10679136
12085245 12585245
10580119 11080119
13179945 13679945
4806670 5306670
8587959 9087959
15064527 15564527
9128960 9628960
9800340 10300340
14020033 14520033
14708105 15208105
9168751 9668751
7793012 8293012
10471568 10971568
6805346 7305346
11238214 11738214
15751539 16251539
8973265 9473265
8200206 8700206
5067117 5567117
9439735 9939735
6131588 6631588
14546116 15046116
8679007 9179007
11729770 12229770
4776638 5276638
12459522 12959522
7213761 7713761
8421505 8921505
4843730 5343730
5157953 5657953
12627631 13127631
6601261 7101261
5735876 6235876
5275402 5775402
13391307 13891307
15577451 16077451
13711386 14211386
7068238 7568238
12054247 12554247
13871289 14371289
9657247 10157247
5036751 5536751
12081600 12581600
8945945 9445945
9050674 9550674
8961523 9461523
4570901 5070901
5588641 6088641
15661265 16161265
9817635 10317635
6745894 7245894
15687057 16187057
10975431 11475431
10899229 11399229
10650690 11150690
15162059 15662059
8628937 9128937
10964077 11464077
10381534 10881534
4746730 5246730
4943380 5443380
13843012 14343012
14677783 15177783
5175954 5675954
7895537 8395537
15954767 16454767
11614119 12114119
15842429 16342429
11636422 12136422
16105657 16605657
5312942 5812942
15915333 16415333
12322865 12822865
13215867 13715867
10022902 10522902
10104938 10604938
13674842 14174842
7310860 7810860
7846946 8346946
15303510 15803510
13305345 13805345
11306484 11806484
8755536 9255536
7553891 8053891
11227939 11727939
7393128 7893128
14607771 15107771
7341286 7841286
8540228 9040228
12957404 13457404
10643895 11143895
10266408 10766408
4402859 4902859
4892809 5392809
8701254 9201254
14013733 14513733
8188031 8688031
8828043 9328043
7567162 8067162
14522216 15022216
12835485 13335485
6265263 6765263
10324332 10824332
5152466 5652466
10635256 11135256
15423387 15923387
10720896 11220896
12738720 13238720
14706620 15206620
7380774 7880774
10976067 11476067
10502294 11002294
14524973 15024973
5898400 6398400
4841366 5341366
12156672 12656672
7915099 8415099
5841370 6341370
11308249 11808249
11490608 11990608
7905276 8405276
15647567 16147567
5989211 6489211
13893483 14393483
14499951 14999951
16132958 16632958
10427484 10927484
8863731 9363731
8025733 8525733
8985928 9485928
15562965 16062965
5788423 6288423
9193927 9693927
12215783 12715783
8061761 8561761
10447575 10947575
4787063 5287063
11982697 12482697
11960297 12460297
6761342 7261342
14631310 15131310
6704494 7204494
14328276 14828276
11722780 12222780
7143755 7643755
15789074 16289074
15880718 16380718
10311620 10811620
8722015 9222015
10498270 10998270
15138483 15638483
10684584 11184584
8874278 9374278
15078964 15578964
8960120 9460120
12672684 13172684
8294627 8794627
4737281 5237281
12765233 13265233
11238715 11738715
5575477 6075477
7642562 8142562
10003214 10503214
6587331 7087331
12403961 12903961
4873911 5373911
7877544 8377544
10132361 10632361
10729666 11229666
15672462 16172462
15094031 15594031
7954067 8454067
15063950 15563950
15227402 15727402
8980392 9480392
7305504 7805504
6893325 7393325
4859688 5359688
11864469 12364469
7216139 7716139
9378052 9878052
11443510 11943510
12830832 13330832
15855679 16355679
10089403 10589403
15557342 16057342
16265688 16765688
9076234 9576234
9067078 9567078
15594119 16094119
8666249 9166249
14534075 15034075
10494322 10994322
10279253 10779253
13749168 14249168
5169613 5669613
8771955 9271955
13371362 13871362
6231847 6731847
6146695 6646695
10878936 11378936
16194770 16694770
14312997 14812997
6514805 7014805
10379733 10879733
10007748 10507748
6491093 6991093
13085950 13585950
4894482 5394482
9494045 9994045
5747573 6247573
10483814 10983814
7790164 8290164
7717698 8217698
5314609 5814609
15634900 16134900
11877220 12377220
11223832 11723832
7014589 7514589
10281948 10781948
7997468 8497468
10799202 11299202
11251254 11751254
12694450 13194450
9407865 9907865
14010564 14510564
9699096 10199096
9640395 10140395
10538981 11038981
7163616 7663616
11181988 11681988
4949355 5449355
14691852 15191852
4508308 5008308
8053807 8553807
10485325 10985325
14531818 15031818
16209439 16709439
9918319 10418319
13351915 13851915
11687950 12187950
13324077 13824077
9271752 9771752
9180593 9680593
8091930 8591930
7735094 8235094
11891755 12391755
5632242 6132242
5036867 5536867
13228268 13728268
7615759 8115759
6387019 6887019
5888983 6388983
4806309 5306309
10831583 11331583
7345884 7845884
10285847 10785847
11183159 11683159
6082162 6582162
15869637 16369637
4554177 5054177
7509337 8009337
15313763 15813763
12220802 12720802
11842901 12342901
7286425 7786425
11726069 12226069
4925009 5425009
10471017 10971017
8871142 9371142
5711462 6211462
5203578 5703578
11868759 12368759
8717736 9217736
4885570 5385570
4960073 5460073
13157147 13657147
7006073 7506073
12365648 12865648
5929361 6429361
6394493 6894493
12634351 13134351
10414203 10914203
9014511 9514511
12751629 13251629
8209891 8709891
14107547 14607547
10255800 10755800
7159325 7659325
6404314 6904314
5167338 5667338
9244557 9744557
5776239 6276239
12973696 13473696
6553450 7053450
15959966 16459966
6345881 6845881
7086210 7586210
8331091 8831091
6052572 6552572
6786170 7286170
7748814 8248814
10293996 10793996
15848256 16348256
4300657 4800657
4692334 5192334
7079636 7579636
10668834 11168834
6633245 7133245
11324369 11824369
8007117 8507117
8084735 8584735
4624350 5124350
4897648 5397648
7279285 7779285
16280557 16780557
7209529 7709529
9231842 9731842
7370365 7870365
5604110 6104110
6293277 6793277
12854607 13354607
15349289 15849289
9414914 9914914
5922337 6422337
12600259 13100259
12499597 12999597
15053892 15553892
10726635 11226635
12158042 12658042
10568899 11068899
14902323 15402323
11082364 11582364
6608917 7108917
15487485 15987485
16027769 16527769
7010553 7510553
16030385 16530385
7167922 7667922
5733483 6233483
14016000 14516000
9916730 10416730
11617614 12117614
5801389 6301389
8487688 8987688
10152089 10652089
15738984 16238984
15822569 16322569
15966347 16466347
14020184 14520184
14692910 15192910
15540488 16040488
5134743 5634743
11213800 11713800
15589608 16089608
7517501 8017501
6393722 6893722
12636105 13136105
6771958 7271958
8887054 9387054
11623909 12123909
16204631 16704631
12337394 12837394
6522811 7022811
14142102 14642102
11162320 11662320
5474056 5974056
7179622 7679622
4198659 4698659
7473073 7973073
6781746 7281746
15689236 16189236
5698922 6198922
9444252 9944252
13049887 13549887
5040614 5540614
6992620 7492620
10646010 11146010
7009150 7509150
9289848 9789848
11831670 12331670
8641169 9141169
4782065 5282065
11325752 11825752
12054602 12554602
9316937 9816937
11892645 12392645
10483775 10983775
12063352 12563352
7665641 8165641
16055843 16555843
10166489 10666489
5643922 6143922
16045360 16545360
5584324 6084324
6362525 6862525
12524304 13024304
11483651 11983651
15671332 16171332
12133359 12633359
5854520 6354520
16212522 16712522
11234955 11734955
9614629 10114629
11977774 12477774
14657522 15157522
6013941 6513941
7522493 8022493
9253445 9753445
14936506 15436506
15613788 16113788
4641452 5141452
11796751 12296751
8355733 8855733
8487905 8987905
12391421 12891421
12407278 12907278
9725169 10225169
14803209 15303209
5676305 6176305
6033941 6533941
13370032 13870032
4794886 5294886
5435351 5935351
7584536 8084536
13618636 14118636
12854347 13354347
11163216 11663216
7509678 8009678
8646922 9146922
12824665 13324665
7517228 8017228
12696553 13196553
13564833 14064833
13953884 14453884
12407231 12907231
14908064 15408064
13831761 14331761
10839955 11339955
7910704 8410704
11831488 12331488
4533041 5033041
5630567 6130567
10062706 10562706
6101096 6601096
5531952 6031952
6530876 7030876
13609376 14109376
4516860 5016860
8858797 9358797
15611498 16111498
11945517 12445517
12781930 13281930
12717122 13217122
16148652 16648652
6504936 7004936
12378596 12878596
6533582 7033582
6994543 7494543
4403317 4903317
6470023 6970023
10570899 11070899
11129418 11629418
10637243 11137243
9858632 10358632
10738153 11238153
8854991 9354991
7894445 8394445
11675413 12175413
4579555 5079555
15160023 15660023
7002993 7502993
10419225 10919225
9601611 10101611
15893237 16393237
5188332 5688332
12370426 12870426
12358823 12858823
10687166 11187166
8772635 9272635
15007365 15507365
7603500 8103500
7522215 8022215
11422715 11922715
11593639 12093639
12777972 13277972
7952040 8452040
7646443 8146443
7173581 7673581
8327438 8827438
4857163 5357163
7425781 7925781
12641691 13141691
5270400 5770400
5756446 6256446
11388556 11888556
6160126 6660126
7108617 7608617
5084230 5584230
11592825 12092825
10832907 11332907
11231539 11731539
12662833 13162833
9649918 10149918
11754586 12254586
15570263 16070263
7554077 8054077
8897284 9397284
5136583 5636583
8510069 9010069
12361202 12861202
12610398 13110398
14159621 14659621
14842843 15342843
12335489 12835489
13158549 13658549
5245110 5745110
5710676 6210676
5033941 5533941
11565153 12065153
14325940 14825940
15950074 16450074
12376691 12876691
14809437 15309437
4267567 4767567
12444200 12944200
4908044 5408044
11717226 12217226
12448905 12948905
4757823 5257823
15424232 15924232
7595463 8095463
12429069 12929069
11822433 12322433
12222662 12722662
5802329 6302329
14936229 15436229
4325296 4825296
4712821 5212821
10052641 10552641
16278931 16778931
6453682 6953682
11488401 11988401
6174191 6674191
15976511 16476511
5342086 5842086
9359479 9859479
9401345 9901345
14766688 15266688
5934625 6434625
8396915 8896915
9661718 10161718
13380036 13880036
6806833 7306833
6492601 6992601
4790201 5290201
5542874 6042874
11737213 12237213
10925985 11425985
15479590 15979590
11975644 12475644
4765949 5265949
5158286 5658286
14957742 15457742
4571449 5071449
4624321 5124321
5911263 6411263
15538854 16038854
4801753 5301753
5326326 5826326
10885959 11385959
8708906 9208906
10000978 10500978
6031850 6531850
10603299 11103299
14683744 15183744
5956537 6456537
14688664 15188664
6805191 7305191
4654673 5154673
7230379 7730379
15042691 15542691
12620683 13120683
13430636 13930636
15110444 15610444
15174593 15674593
13909869 14409869
14886214 15386214
9313432 9813432
16001586 16501586
5785491 6285491
6271099 6771099
14260128 14760128
5681400 6181400
12231539 12731539
13646639 14146639
5389972 5889972
9445678 9945678
11927695 12427695
6730431 7230431
12626925 13126925
6333492 6833492
11251727 11751727
6627443 7127443
14724325 15224325
15348838 15848838
11415945 11915945
15531732 16031732
5235824 5735824
11253164 11753164
12944193 13444193
11644167 12144167
12411984 12911984
4824295 5324295
8281910 8781910
14652242 15152242
14602599 15102599
5896872 6396872
9522805 10022805
4830714 5330714
12316422 12816422
8125191 8625191
14972446 15472446
9974899 10474899
7939499 8439499
12916157 13416157
6826352 7326352
7195955 7695955
13159134 13659134
9147038 9647038
14898620 15398620
7255668 7755668
5626281 6126281
12854209 13354209
6530474 7030474
9155683 9655683
13278471 13778471
13696847 14196847
14054123 14554123
13788901 14288901
4419599 4919599
4915498 5415498
11464547 11964547
11681430 12181430
14785838 15285838
4837108 5337108
9876999 10376999
12880786 13380786
8350835 8850835
11924171 12424171
6004410 6504410
9397094 9897094
4935337 5435337
6413095 6913095
4247026 4747026
15851008 16351008
9392753 9892753
7253043 7753043
9819725 10319725
12710577 13210577
8911480 9411480
5716972 6216972
4505831 5005831
6517981 7017981
12598758 13098758
4436177 4936177
15184042 15684042
5798211 6298211
16230666 16730666
15619133 16119133
5750767 6250767
10864671 11364671
9898725 10398725
11256464 11756464
12833902 13333902
6283168 6783168
11532567 12032567
5181948 5681948
10749795 11249795
4465869 4965869
9429204 9929204
10085885 10585885
12872417 13372417
15214382 15714382
7535158 8035158
8202950 8702950
12081008 12581008
11213645 11713645
12055298 12555298
13416102 13916102
7457005 7957005
9650346 10150346
10510269 11010269
14429797 14929797
6863237 7363237
9446857 9946857
13302155 13802155
14049293 14549293
5913090 6413090
13191639 13691639
14746905 15246905
7618721 8118721
11429559 11929559
7275673 7775673
13059347 13559347
9584853 10084853
15218977 15718977
14358946 14858946
7520523 8020523
9213107 9713107
10438486 10938486
6820118 7320118
6369950 6869950
13415728 13915728
11076005 11576005
8497393 8997393
14120267 14620267
4955844 5455844
13348799 13848799
6004250 6504250
6171661 6671661
13911452 14411452
9568143 10068143
12964888 13464888
13344762 13844762
13785888 14285888
12863445 13363445
4829518 5329518
15385858 15885858
4210958 4710958
15378636 15878636
11049156 11549156
6121903 6621903
15330792 15830792
10465120 10965120
9124469 9624469
12811805 13311805
14066428 14566428
9300506 9800506
14998775 15498775
15601044 16101044
5432830 5932830
10390638 10890638
4867806 5367806
7391677 7891677
9811155 10311155
11809154 12309154
8749226 9249226
7112030 7612030
6261931 6761931
13550240 14050240
11312179 11812179
13844631 14344631
14506591 15006591
11340391 11840391
11376896 11876896
4496888 4996888
8653769 9153769
8029462 8529462
15611214 16111214
4626529 5126529
13991854 14491854
9850822 10350822
14398827 14898827
6079896 6579896
4954029 5454029
11277558 11777558
12584009 13084009
10204983 10704983
15485566 15985566
6748851 7248851
10518876 11018876
6715368 7215368
12852368 13352368
5020542 5520542
7786062 8286062
7212660 7712660
4869064 5369064
15042890 15542890
14204580 14704580
4983998 5483998
11887686 12387686
13012736 13512736
13045730 13545730
13049837 13549837
14983340 15483340
4381051 4881051
10826593 11326593
8368760 8868760
5473609 5973609
6074623 6574623
5792252 6292252
10878999 11378999
14705494 15205494
13549857 14049857
14785718 15285718
4940689 5440689
11307036 11807036
4678552 5178552
13586627 14086627
12640378 13140378
10592709 11092709
10878030 11378030
10025190 10525190
11317263 11817263
7458625 7958625
12636524 13136524
12924505 13424505
10219239 10719239
13753976 14253976
10435631 10935631
6802471 7302471
9436446 9936446
10751774 11251774
15386761 15886761
14663538 15163538
13602240 14102240
10695521 11195521
7255354 7755354
13365525 13865525
8440354 8940354
7194642 7694642
13996804 14496804
11886899 12386899
15795846 16295846
6892873 7392873
13435828 13935828
5059721 5559721
5507960 6007960
5067389 5567389
14550622 15050622
12347028 12847028
6476432 6976432
5860286 6360286
11710712 12210712
9349027 9849027
7499189 7999189
8754396 9254396
8282958 8782958
10992426 11492426
8464100 8964100
10058473 10558473
11525935 12025935
9132967 9632967
7036628 7536628
11483582 11983582
10855254 11355254
11244967 11744967
12511853 13011853
6785337 7285337
12592420 13092420
6680255 7180255
11913208 12413208
12984214 13484214
10142555 10642555
10856156 11356156
7249911 7749911
8867440 9367440
11724376 12224376
13739773 14239773
12716946 13216946
12836138 13336138
14389264 14889264
9041632 9541632
10219711 10719711
12131336 12631336
5140050 5640050
5472491 5972491
12329822 12829822
5021637 5521637
14153499 14653499
16009022 16509022
6270937 6770937
6133035 6633035
12198554 12698554
9046313 9546313
6867116 7367116
8616812 9116812
7301110 7801110
11063108 11563108
8762063 9262063
5216108 5716108
5856912 6356912
6591255 7091255
6277121 6777121
4655382 5155382
11325262 11825262
6004812 6504812
8320253 8820253
12508807 13008807
15453874 15953874
8058777 8558777
4637368 5137368
11039385 11539385
13491182 13991182
10099093 10599093
15200748 15700748
8119148 8619148
6505419 7005419
9570025 10070025
7568409 8068409
7930480 8430480
15547557 16047557
10153355 10653355
7753374 8253374
11049912 11549912
6968591 7468591
8649357 9149357
11635841 12135841
14527873 15027873
7846206 8346206
12848766 13348766
6506091 7006091
8667044 9167044
8181511 8681511
8888206 9388206
6272988 6772988
8626469 9126469
6892892 7392892
12962732 13462732
11062951 11562951
14669550 15169550
15677050 16177050
4383832 4883832
4323100 4823100
9782267 10282267
7359179 7859179
5205665 5705665
8092706 8592706
10692383 11192383
14412222 14912222
5333266 5833266
12000945 12500945
5480123 5980123
8432831 8932831
8389384 8889384
12946795 13446795
13745331 14245331
8683681 9183681
15935575 16435575
14671514 15171514
14476249 14976249
4822389 5322389
8654652 9154652
10298980 10798980
9457270 9957270
10613506 11113506
10258504 10758504
13869037 14369037
10747950 11247950
7458468 7958468
5650206 6150206
13056145 13556145
4515976 5015976
14108913 14608913
10059567 10559567
8974383 9474383
9690169 10190169
4935855 5435855
10302899 10802899
9667146 10167146
5073550 5573550
5755213 6255213
5708802 6208802
12002507 12502507
13978164 14478164
5132977 5632977
11004297 11504297
7451530 7951530
12154961 12654961
11352131 11852131
10871241 11371241
16095786 16595786
14482438 14982438
9216725 9716725
14708060 15208060
6443309 6943309
11414752 11914752
8150150 8650150
14731080 15231080
6535583 7035583
4803873 5303873
8015884 8515884
9106485 9606485
4560260 5060260
15983731 16483731
13088827 13588827
5214379 5714379
15220528 15720528
10062563 10562563
16271331 16771331
11059566 11559566
13987478 14487478
5020190 5520190
12624648 13124648
12382084 12882084
12737167 13237167
7304850 7804850
8720545 9220545
10143226 10643226
4497822 4997822
8858809 9358809
12219653 12719653
13840426 14340426
5897565 6397565
7343296 7843296
4595993 5095993
11592099 12092099
14481304 14981304
8322594 8822594
12945860 13445860
7981956 8481956
7077855 7577855
4305924 4805924
11634312 12134312
12066373 12566373
13668186 14168186
7843977 8343977
11396439 11896439
10296168 10796168
13474302 13974302
6028510 6528510
5074375 5574375
7489761 7989761
10107918 10607918
5765896 6265896
12741476 13241476
7355498 7855498
10513327 11013327
7312626 7812626
13726384 14226384
15836356 16336356
9041765 9541765
9339924 9839924
14073826 14573826
13883039 14383039
8191633 8691633
15986997 16486997
8530220 9030220
7705337 8205337
5926034 6426034
13995985 14495985
8982224 9482224
12100319 12600319
4506293 5006293
9270326 9770326
4318989 4818989
9631525 10131525
10095924 10595924
15934394 16434394
16054608 16554608
6475595 6975595
7639855 8139855
5038850 5538850
4820067 5320067
6527694 7027694
10631958 11131958
15642327 16142327
15143780 15643780
6627722 7127722
10618446 11118446
14650680 15150680
9146288 9646288
12561294 13061294
14516222 15016222
15952772 16452772
13913430 14413430
13842449 14342449
13245066 13745066
6982007 7482007
14086548 14586548
4444551 4944551
10427503 10927503
14698568 15198568
16279848 16779848
14954079 15454079
5525183 6025183
5685471 6185471
16271832 16771832
5617944 6117944
10056205 10556205
5206261 5706261
12064282 12564282
4703012 5203012
5693409 6193409
13384634 13884634
15954771 16454771
9777695 10277695
13526663 14026663
13363093 13863093
7337551 7837551
14728520 15228520
15558437 16058437
15136056 15636056
6027889 6527889
13189792 13689792
6054781 6554781
14549846 15049846
9507108 10007108
5525445 6025445
8100927 8600927
4673259 5173259
11687021 12187021
16100020 16600020
5175841 5675841
11452315 11952315
11012746 11512746
4654255 5154255
4333772 4833772
7514964 8014964
8950492 9450492
4444950 4944950
11353926 11853926
7291607 7791607
12619266 13119266
7618915 8118915
8790491 9290491
8916987 9416987
13826884 14326884
4637221 5137221
15687808 16187808
6861152 7361152
11072305 11572305
15926948 16426948
14402077 14902077
12295651 12795651
13955136 14455136
7048495 7548495
11102917 11602917
14917202 15417202
11611598 12111598
11567955 12067955
7412458 7912458
15641398 16141398
12546477 13046477
4938927 5438927
10906543 11406543
15789321 16289321
13081565 13581565
14716936 15216936
8421195 8921195
4876075 5376075
8072015 8572015
6382586 6882586
7446464 7946464
10973402 11473402
10719373 11219373
6614415 7114415
4538801 5038801
15701009 16201009
6078802 6578802
13220812 13720812
13483705 13983705
5512495 6012495
13959576 14459576
11861096 12361096
10680239 11180239
7826357 8326357
10579465 11079465
7358961 7858961
13439167 13939167
12674206 13174206
13821344 14321344
13988173 14488173
5418610 5918610
15222331 15722331
10049857 10549857
9789844 10289844
7301348 7801348
14871624 15371624
11323652 11823652
10491647 10991647
14748852 15248852
10929016 11429016
9556384 10056384
5195281 5695281
14423657 14923657
5995148 6495148
4766403 5266403
5721548 6221548
11939604 12439604
6088142 6588142
15016040 15516040
15085741 15585741
4339646 4839646
4828217 5328217
6954243 7454243
13986596 14486596
8885044 9385044
7324494 7824494
5899673 6399673
12767555 13267555
7646960 8146960
7028008 7528008
8896810 9396810
9773437 10273437
12664736 13164736
10056021 10556021
16240012 16740012
12266706 12766706
10146201 10646201
14327357 14827357
9236709 9736709
5675382 6175382
5047376 5547376
14519348 15019348
5635960 6135960
9193909 9693909
14148451 14648451
8183403 8683403
7725280 8225280
7066242 7566242
10822259 11322259
11508686 12008686
13023573 13523573
12160488 12660488
9522967 10022967
12884813 13384813
10560137 11060137
5836512 6336512
7870222 8370222
8810953 9310953
9359909 9859909
7691530 8191530
9641797 10141797
14812941 15312941
11064090 11564090
8398777 8898777
8484185 8984185
11799246 12299246
4754037 5254037
10935209 11435209
7033490 7533490
6130703 6630703
10227349 10727349
6567188 7067188
11248822 11748822
13475918 13975918
12879975 13379975
11667588 12167588
11296708 11796708
7780459 8280459
5838218 6338218
8615909 9115909
11487447 11987447
8176903 8676903
9827040 10327040
15850915 16350915
13932957 14432957
15171381 15671381
15998491 16498491
10085894 10585894
14837038 15337038
12568801 13068801
12922896 13422896
5454065 5954065
15118436 15618436
7283322 7783322
9352010 9852010
15805355 16305355
11532885 12032885
9064118 9564118
7127374 7627374
9930027 10430027
9747659 10247659
9852398 10352398
5908873 6408873
15068372 15568372
14867300 15367300
5278464 5778464
7158187 7658187
10691887 11191887
15566342 16066342
6836277 7336277
11202181 11702181
12725551 13225551
14625762 15125762
7269230 7769230
10461802 10961802
8674891 9174891
6443270 6943270
13337970 13837970
8540093 9040093
4771010 5271010
14237588 14737588
14189889 14689889
12940359 13440359
16069922 16569922
10195091 10695091
13853748 14353748
6325461 6825461
10547526 11047526
4225654 4725654
15762872 16262872
9151848 9651848
13360896 13860896
5524615 6024615
5691199 6191199
14571959 15071959
13158893 13658893
16275671 16775671
8746241 9246241
7158047 7658047
8354232 8854232
8867205 9367205
7767501 8267501
9630342 10130342
10899649 11399649
8399747 8899747
14201824 14701824
13621241 14121241
11369949 11869949
9728035 10228035
6965716 7465716
15318833 15818833
15277014 15777014
14120277 14620277
14513202 15013202
4534090 5034090
4905155 5405155
15246787 15746787
15779999 16279999
16174396 16674396
14095982 14595982
5401373 5901373
15451031 15951031
6034877 6534877
6310885 6810885
14628722 15128722
7439294 7939294
9094286 9594286
5025243 5525243
6511591 7011591
7184838 7684838
11991741 12491741
8283895 8783895
12508812 13008812
11799468 12299468
6445319 6945319
12675946 13175946
14298840 14798840
8616894 9116894
8558830 9058830
10531351 11031351
13528188 14028188
15001441 15501441
10123741 10623741
5841441 6341441
9991806 10491806
8634931 9134931
6721352 7221352
6634439 7134439
4713397 5213397
4533648 5033648
4942043 5442043
15822589 16322589
10165317 10665317
5702582 6202582
10103364 10603364
14337258 14837258
5407952 5907952
14608381 15108381
9565406 10065406
4376412 4876412
9657220 10157220
12470234 12970234
4945053 5445053
8474327 8974327
9966193 10466193
15298716 15798716
11719150 12219150
5704809 6204809
13423227 13923227
5020171 5520171
8363099 8863099
14417711 14917711
8044729 8544729
13798145 14298145
9447215 9947215
11928267 12428267
11731236 12231236
13735586 14235586
12465374 12965374
13613294 14113294
15858975 16358975
6961229 7461229
7018743 7518743
4521892 5021892
4944148 5444148
7045682 7545682
4680463 5180463
14202221 14702221
7010855 7510855
10835492 11335492
13590382 14090382
12110461 12610461
6610102 7110102
5644695 6144695
6272550 6772550
4824072 5324072
7661867 8161867
14403151 14903151
4697860 5197860
8897927 9397927
4337924 4837924
10580569 11080569
5213514 5713514
10327706 10827706
13944033 14444033
7128539 7628539
9676132 10176132
13321334 13821334
13982682 14482682
6281818 6781818
6779976 7279976
14223551 14723551
16030803 16530803
6937644 7437644
15020004 15520004
9354455 9854455
8151834 8651834
5148943 5648943
7861792 8361792
12707548 13207548
14977223 15477223
8590355 9090355
12857273 13357273
15244849 15744849
13744290 14244290
12564642 13064642
9952782 10452782
8325635 8825635
5181858 5681858
5310500 5810500
15664931 16164931
16187136 16687136
14745176 15245176
16069781 16569781
14702969 15202969
12854509 13354509
8429101 8929101
13100064 13600064
11053773 11553773
16161040 16661040
12163211 12663211
9066625 9566625
14366241 14866241
10838657 11338657
14914960 15414960
8853358 9353358
14159844 14659844
9608690 10108690
12068641 12568641
9287476 9787476
12847228 13347228
8545097 9045097
11313556 11813556
16192775 16692775
7250945 7750945
5585284 6085284
6098248 6598248
7518403 8018403
15833521 16333521
12891785 13391785
15135458 15635458
4746248 5246248
5106716 5606716
11513717 12013717
10330919 10830919
6850311 7350311
7612721 8112721
12138963 12638963
13856867 14356867
13012831 13512831
6284479 6784479
15333428 15833428
9691831 10191831
6154418 6654418
13818296 14318296
10568432 11068432
12384978 12884978
7235320 7735320
5670055 6170055
7895633 8395633
12892826 13392826
13897049 14397049
12300118 12800118
4485182 4985182
4265865 4765865
9030973 9530973
5952492 6452492
12133409 12633409
8774885 9274885
9824571 10324571
11202366 11702366
13596528 14096528
12352793 12852793
13661492 14161492
7260625 7760625
7219638 7719638
13758049 14258049
6375339 6875339
15071851 15571851
6615205 7115205
4746332 5246332
14187840 14687840
4516957 5016957
9394188 9894188
10728559 11228559
13045625 13545625
11007305 11507305
14355623 14855623
13668576 14168576
9963020 10463020
10771776 11271776
6788858 7288858
12551615 13051615
5348995 5848995
12143796 12643796
12618638 13118638
11098151 11598151
8647315 9147315
12220557 12720557
6131678 6631678
11696702 12196702
7970463 8470463
10184700 10684700
16249227 16749227
11245032 11745032
4849206 5349206
10407989 10907989
12062795 12562795
8694940 9194940
4739855 5239855
5662408 6162408
9903682 10403682
15989814 16489814
6627765 7127765
8405479 8905479
9608451 10108451
14274484 14774484
7967661 8467661
14707817 15207817
14037218 14537218
14451456 14951456
6976875 7476875
13097851 13597851
14990394 15490394
11387056 11887056
7225016 7725016
16226977 16726977
12043446 12543446
13162391 13662391
4991341 5491341
12568682 13068682
9147086 9647086
4295678 4795678
14445881 14945881
7014646 7514646
12227539 12727539
12972507 13472507
8477656 8977656
7184521 7684521
14360446 14860446
11499996 11999996
9166391 9666391
15957051 16457051
12536408 13036408
4446176 4946176
11128479 11628479
13523443 14023443
14950036 15450036
10869819 11369819
10890894 11390894
11813515 12313515
11489967 11989967
5428059 5928059
9999451 10499451
5813251 6313251
5973552 6473552
11577802 12077802
5488928 5988928
13192057 13692057
9221907 9721907
6110014 6610014
7471837 7971837
5690424 6190424
6606594 7106594
12890231 13390231
5140484 5640484
7141405 7641405
15182480 15682480
14316264 14816264
12665047 13165047
5594457 6094457
13292399 13792399
5548381 6048381
5421052 5921052
12085968 12585968
9642098 10142098
10874470 11374470
6275202 6775202
8862607 9362607
6007038 6507038
15395534 15895534
13290039 13790039
12845697 13345697
11003557 11503557
11194646 11694646
7814682 8314682
10413840 10913840
7541311 8041311
11621849 12121849
12807436 13307436
6451595 6951595
11388911 11888911
12725427 13225427
14064469 14564469
12528685 13028685
10275367 10775367
11820071 12320071
13430509 13930509
7537845 8037845
14284575 14784575
6796839 7296839
13425939 13925939
5613902 6113902
4863717 5363717
15660518 16160518
7874361 8374361
4765614 5265614
6334906 6834906
6479828 6979828
5068690 5568690
5228394 5728394
10193234 10693234
6085232 6585232
12415820 12915820
10378903 10878903
14338970 14838970
13379631 13879631
14309597 14809597
11712144 12212144
5896839 6396839
15531280 16031280
6378454 6878454
15873848 16373848
6131764 6631764
7068495 7568495
11964193 12464193
6172389 6672389
6104247 6604247
10025182 10525182
9819681 10319681
8130941 8630941
11009829 11509829
9447236 9947236
8813256 9313256
4226272 4726272
15868564 16368564
14784829 15284829
15316284 15816284
11477428 11977428
13932919 14432919
8577203 9077203
4906189 5406189
6849306 7349306
12542568 13042568
12866007 13366007
5208720 5708720
8146986 8646986
5988641 6488641
10833332 11333332
8544375 9044375
4961093 5461093
7364237 7864237
8913869 9413869
6614002 7114002
15933752 16433752
9857563 10357563
15316329 15816329
4635388 5135388
13008825 13508825
7764087 8264087
12787024 13287024
15920967 16420967
15276352 15776352
10174000 10674000
12184179 12684179
9284273 9784273
4612071 5112071
9118069 9618069
4918766 5418766
8464596 8964596
4236609 4736609
11743826 12243826
6902554 7402554
13740144 14240144
5476152 5976152
11945534 12445534
10236099 10736099
12043465 12543465
15543211 16043211
13106017 13606017
10641170 11141170
6150542 6650542
6047809 6547809
7564906 8064906
13842829 14342829
11295583 11795583
5193741 5693741
14086176 14586176
7566437 8066437
6670130 7170130
11887573 12387573
6487631 6987631
7089305 7589305
6396113 6896113
9527764 10027764
4409792 4909792
4926470 5426470
8662134 9162134
12462283 12962283
6561735 7061735
15565199 16065199
10102383 10602383
15494316 15994316
9570989 10070989
15347468 15847468
6408608 6908608
7685064 8185064
5069948 5569948
7015972 7515972
14805879 15305879
6701065 7201065
4532535 5032535
10957972 11457972
10891608 11391608
13644916 14144916
5469969 5969969
7020613 7520613
6026384 6526384
6726497 7226497
10717196 11217196
9679945 10179945
8099778 8599778
14201328 14701328
10801566 11301566
6238654 6738654
9031386 9531386
4200712 4700712
14154344 14654344
11831108 12331108
13267263 13767263
8058207 8558207
15480491 15980491
6236798 6736798
13158206 13658206
16287055 16787055
14067123 14567123
