50
Leslie Wharton
Elliston Wharton
Pett Wharton
Gallacher Pett
Irvin Elliston
Elston Leslie
Jennings Gallacher
Clifford Pett
Creasey Elston
Penn Jennings
Fahy Creasey
Fulleron Fahy
Parnaby Pett
Isaac Wharton
Henry Leslie
Alsop Fulleron
Cummings Jennings
Teasdale Wharton
Kilbey Pett
Beamish Kilbey
Baines Parnaby
Addison Henry
Ashdown Fahy
Bruce Cummings
Freight Teasdale
Cooper Fahy
Leech Penn
Pitchford Alsop
Whyte Leslie
Lyall Penn
Harper Elliston
Owen Kilbey
Sterling Elston
Dingle Henry
Gunter Ashdown
Isnard Cummings
Render Sterling
Thonon Leech
Clarke Whyte
Tohill Fulleron
Clarkson Kilbey
Anwar Elliston
Bramley Kilbey
Kane Harper
Tate Whyte
Duckworth Thonon
Lynes Wharton
More Kilbey
Crossley Elliston